n = 9
WARNING: for repeatability, setting FPU to use double precision
============================[ Problem Statistics ]=============================
|                                                                             |
|  Number of variables:           729                                         |
|  Number of clauses:            6642                                         |
|  Parse time:                   0.00 s                                       |
|  Eliminated clauses:           0.01 Mb                                      |
|  Simplification time:          0.02 s                                       |
|                                                                             |
============================[ Search Statistics ]==============================
| Conflicts |          ORIGINAL         |          LEARNT          | Progress |
|           |    Vars  Clauses Literals |    Limit  Clauses Lit/Cl |          |
===============================================================================
===============================================================================
restarts              : 1
conflicts             : 0              (0 /sec)
decisions             : 1              (0.00 % random) (42 /sec)
propagations          : 0              (0 /sec)
conflict literals     : 0              (-nan % deleted)
Memory used           : 21.87 MB
CPU time              : 0.024001 s

SATISFIABLE


n = 16
WARNING: for repeatability, setting FPU to use double precision
============================[ Problem Statistics ]=============================
|                                                                             |
|  Number of variables:          4096                                         |
|  Number of clauses:           65792                                         |
|  Parse time:                   0.10 s                                       |
|  Simplification time:          1.26 s                                       |
|                                                                             |
============================[ Search Statistics ]==============================
| Conflicts |          ORIGINAL         |          LEARNT          | Progress |
|           |    Vars  Clauses Literals |    Limit  Clauses Lit/Cl |          |
===============================================================================
===============================================================================
restarts              : 1
conflicts             : 0              (0 /sec)
decisions             : 3593           (1.98 % random) (2657 /sec)
propagations          : 4096           (3029 /sec)
conflict literals     : 0              (-nan % deleted)
Memory used           : 46.52 MB
CPU time              : 1.35208 s

SATISFIABLE
